p cnf 430 1488
-191 -141 0
-191 -89 0
-191 121 0
-191 26 0
-191 -90 0
191 141 89 -121 -26 90 0
-192 -43 0
-192 -127 0
-192 27 0
-192 107 0
-192 164 0
192 43 127 -27 -107 -164 0
-193 -41 0
-193 -17 0
-193 124 0
-193 121 0
-193 -68 0
193 41 17 -124 -121 68 0
-194 -1 0
-194 -101 0
-194 -178 0
-194 -23 0
-194 -154 0
194 1 101 178 23 154 0
-195 180 0
-195 -114 0
-195 -146 0
-195 178 0
-195 -18 0
195 -180 114 146 -178 18 0
191 192 193 194 195 0
-196 -54 0
-196 -29 0
-196 81 0
-196 -134 0
-196 122 0
196 54 29 -81 134 -122 0
-197 48 0
-197 -153 0
-197 65 0
-197 -59 0
-197 -16 0
197 -48 153 -65 59 16 0
-198 -111 0
-198 -24 0
-198 134 0
-198 57 0
-198 46 0
198 111 24 -134 -57 -46 0
-199 81 0
-199 -94 0
-199 -18 0
-199 20 0
-199 129 0
199 -81 94 18 -20 -129 0
-200 118 0
-200 -64 0
-200 20 0
-200 -70 0
-200 7 0
200 -118 64 -20 70 -7 0
196 197 198 199 200 0
-201 -181 0
-201 123 0
-201 24 0
-201 -50 0
-201 -116 0
201 181 -123 -24 50 116 0
-202 -77 0
-202 -38 0
-202 -132 0
-202 -37 0
-202 -137 0
202 77 38 132 37 137 0
-203 -97 0
-203 -129 0
-203 -63 0
-203 -23 0
-203 74 0
203 97 129 63 23 -74 0
-204 63 0
-204 59 0
-204 173 0
-204 36 0
-204 -168 0
204 -63 -59 -173 -36 168 0
-205 164 0
-205 112 0
-205 -175 0
-205 -49 0
-205 -148 0
205 -164 -112 175 49 148 0
201 202 203 204 205 0
-206 -91 0
-206 -42 0
-206 92 0
-206 61 0
-206 163 0
206 91 42 -92 -61 -163 0
-207 -75 0
-207 -161 0
-207 6 0
-207 -11 0
-207 -190 0
207 75 161 -6 11 190 0
-208 135 0
-208 -32 0
-208 7 0
-208 -163 0
-208 30 0
208 -135 32 -7 163 -30 0
-209 127 0
-209 -41 0
-209 -175 0
-209 27 0
-209 183 0
209 -127 41 175 -27 -183 0
-210 -49 0
-210 47 0
-210 -117 0
-210 50 0
-210 -164 0
210 49 -47 117 -50 164 0
206 207 208 209 210 0
-211 -190 0
-211 169 0
-211 110 0
-211 133 0
-211 -115 0
211 190 -169 -110 -133 115 0
-212 -91 0
-212 -19 0
-212 125 0
-212 -170 0
-212 104 0
212 91 19 -125 170 -104 0
-213 -26 0
-213 -22 0
-213 -124 0
-213 77 0
-213 15 0
213 26 22 124 -77 -15 0
-214 186 0
-214 149 0
-214 -137 0
-214 -88 0
-214 134 0
214 -186 -149 137 88 -134 0
-215 87 0
-215 -52 0
-215 99 0
-215 102 0
-215 -41 0
215 -87 52 -99 -102 41 0
211 212 213 214 215 0
-216 84 0
-216 -12 0
-216 -34 0
-216 160 0
-216 36 0
216 -84 12 34 -160 -36 0
-217 29 0
-217 -31 0
-217 175 0
-217 136 0
-217 150 0
217 -29 31 -175 -136 -150 0
-218 125 0
-218 -79 0
-218 -1 0
-218 -37 0
-218 84 0
218 -125 79 1 37 -84 0
-219 -128 0
-219 123 0
-219 181 0
-219 -90 0
-219 46 0
219 128 -123 -181 90 -46 0
-220 -41 0
-220 -160 0
-220 -158 0
-220 74 0
-220 132 0
220 41 160 158 -74 -132 0
216 217 218 219 220 0
-221 108 0
-221 165 0
-221 171 0
-221 144 0
-221 -117 0
221 -108 -165 -171 -144 117 0
-222 96 0
-222 -55 0
-222 -144 0
-222 -26 0
-222 66 0
222 -96 55 144 26 -66 0
-223 -78 0
-223 -125 0
-223 -49 0
-223 -120 0
-223 7 0
223 78 125 49 120 -7 0
-224 -159 0
-224 -2 0
-224 -157 0
-224 148 0
-224 12 0
224 159 2 157 -148 -12 0
-225 -130 0
-225 -158 0
-225 -82 0
-225 43 0
-225 -120 0
225 130 158 82 -43 120 0
221 222 223 224 225 0
-226 -54 0
-226 158 0
-226 39 0
-226 -9 0
-226 81 0
226 54 -158 -39 9 -81 0
-227 -51 0
-227 98 0
-227 -79 0
-227 -69 0
-227 -44 0
227 51 -98 79 69 44 0
-228 -30 0
-228 164 0
-228 75 0
-228 38 0
-228 -165 0
228 30 -164 -75 -38 165 0
-229 -95 0
-229 -112 0
-229 -137 0
-229 -110 0
-229 -185 0
229 95 112 137 110 185 0
-230 -135 0
-230 162 0
-230 85 0
-230 -83 0
-230 12 0
230 135 -162 -85 83 -12 0
226 227 228 229 230 0
-231 111 0
-231 -121 0
-231 8 0
-231 -55 0
-231 -59 0
231 -111 121 -8 55 59 0
-232 52 0
-232 -60 0
-232 -99 0
-232 -104 0
-232 80 0
232 -52 60 99 104 -80 0
-233 -15 0
-233 128 0
-233 17 0
-233 -1 0
-233 56 0
233 15 -128 -17 1 -56 0
-234 58 0
-234 -6 0
-234 1 0
-234 -137 0
-234 107 0
234 -58 6 -1 137 -107 0
-235 -101 0
-235 -175 0
-235 154 0
-235 -95 0
-235 87 0
235 101 175 -154 95 -87 0
231 232 233 234 235 0
-236 -64 0
-236 92 0
-236 71 0
-236 -179 0
-236 -125 0
236 64 -92 -71 179 125 0
-237 -70 0
-237 155 0
-237 42 0
-237 6 0
-237 139 0
237 70 -155 -42 -6 -139 0
-238 -99 0
-238 26 0
-238 -142 0
-238 28 0
-238 179 0
238 99 -26 142 -28 -179 0
-239 -155 0
-239 -163 0
-239 -187 0
-239 -31 0
-239 104 0
239 155 163 187 31 -104 0
-240 111 0
-240 -140 0
-240 61 0
-240 75 0
-240 29 0
240 -111 140 -61 -75 -29 0
236 237 238 239 240 0
-241 69 0
-241 164 0
-241 119 0
-241 -135 0
-241 2 0
241 -69 -164 -119 135 -2 0
-242 -29 0
-242 -172 0
-242 -158 0
-242 -89 0
-242 -178 0
242 29 172 158 89 178 0
-243 -105 0
-243 136 0
-243 -65 0
-243 135 0
-243 14 0
243 105 -136 65 -135 -14 0
-244 137 0
-244 101 0
-244 -55 0
-244 -57 0
-244 -147 0
244 -137 -101 55 57 147 0
-245 28 0
-245 -186 0
-245 173 0
-245 -3 0
-245 -33 0
245 -28 186 -173 3 33 0
241 242 243 244 245 0
-246 177 0
-246 -24 0
-246 -136 0
-246 -146 0
-246 189 0
246 -177 24 136 146 -189 0
-247 -137 0
-247 -14 0
-247 -24 0
-247 94 0
-247 184 0
247 137 14 24 -94 -184 0
-248 -100 0
-248 63 0
-248 -118 0
-248 -184 0
-248 12 0
248 100 -63 118 184 -12 0
-249 42 0
-249 -130 0
-249 -189 0
-249 -15 0
-249 160 0
249 -42 130 189 15 -160 0
-250 -7 0
-250 121 0
-250 -18 0
-250 14 0
-250 189 0
250 7 -121 18 -14 -189 0
246 247 248 249 250 0
-251 103 0
-251 71 0
-251 -89 0
-251 35 0
-251 182 0
251 -103 -71 89 -35 -182 0
-252 20 0
-252 -181 0
-252 119 0
-252 -161 0
-252 108 0
252 -20 181 -119 161 -108 0
-253 -166 0
-253 141 0
-253 -132 0
-253 129 0
-253 174 0
253 166 -141 132 -129 -174 0
-254 -119 0
-254 -50 0
-254 97 0
-254 93 0
-254 -72 0
254 119 50 -97 -93 72 0
-255 -109 0
-255 88 0
-255 -185 0
-255 77 0
-255 -94 0
255 109 -88 185 -77 94 0
251 252 253 254 255 0
-256 -157 0
-256 -167 0
-256 -84 0
-256 -100 0
-256 180 0
256 157 167 84 100 -180 0
-257 -5 0
-257 33 0
-257 -154 0
-257 -115 0
-257 110 0
257 5 -33 154 115 -110 0
-258 -165 0
-258 1 0
-258 -138 0
-258 60 0
-258 8 0
258 165 -1 138 -60 -8 0
-259 -6 0
-259 20 0
-259 101 0
-259 -90 0
-259 -161 0
259 6 -20 -101 90 161 0
-260 -109 0
-260 183 0
-260 74 0
-260 148 0
-260 -21 0
260 109 -183 -74 -148 21 0
256 257 258 259 260 0
-261 88 0
-261 -6 0
-261 33 0
-261 -136 0
-261 64 0
261 -88 6 -33 136 -64 0
-262 156 0
-262 -8 0
-262 -163 0
-262 -89 0
-262 60 0
262 -156 8 163 89 -60 0
-263 -184 0
-263 92 0
-263 91 0
-263 176 0
-263 39 0
263 184 -92 -91 -176 -39 0
-264 161 0
-264 -27 0
-264 -80 0
-264 -22 0
-264 -67 0
264 -161 27 80 22 67 0
-265 169 0
-265 -141 0
-265 103 0
-265 176 0
-265 61 0
265 -169 141 -103 -176 -61 0
261 262 263 264 265 0
-266 11 0
-266 -48 0
-266 -120 0
-266 -53 0
-266 139 0
266 -11 48 120 53 -139 0
-267 -78 0
-267 -103 0
-267 -115 0
-267 96 0
-267 -83 0
267 78 103 115 -96 83 0
-268 -120 0
-268 52 0
-268 30 0
-268 70 0
-268 16 0
268 120 -52 -30 -70 -16 0
-269 21 0
-269 83 0
-269 107 0
-269 -7 0
-269 -129 0
269 -21 -83 -107 7 129 0
-270 141 0
-270 -165 0
-270 -6 0
-270 22 0
-270 -3 0
270 -141 165 6 -22 3 0
266 267 268 269 270 0
-271 -135 0
-271 100 0
-271 37 0
-271 -81 0
-271 -10 0
271 135 -100 -37 81 10 0
-272 53 0
-272 83 0
-272 -90 0
-272 -148 0
-272 -49 0
272 -53 -83 90 148 49 0
-273 -26 0
-273 89 0
-273 129 0
-273 -36 0
-273 -154 0
273 26 -89 -129 36 154 0
-274 150 0
-274 57 0
-274 -56 0
-274 -83 0
-274 77 0
274 -150 -57 56 83 -77 0
-275 179 0
-275 -17 0
-275 -54 0
-275 -100 0
-275 188 0
275 -179 17 54 100 -188 0
271 272 273 274 275 0
-276 -48 0
-276 156 0
-276 30 0
-276 -187 0
-276 172 0
276 48 -156 -30 187 -172 0
-277 -23 0
-277 84 0
-277 95 0
-277 -40 0
-277 185 0
277 23 -84 -95 40 -185 0
-278 80 0
-278 -160 0
-278 44 0
-278 -94 0
-278 86 0
278 -80 160 -44 94 -86 0
-279 -140 0
-279 7 0
-279 -21 0
-279 137 0
-279 99 0
279 140 -7 21 -137 -99 0
-280 -129 0
-280 143 0
-280 -32 0
-280 -13 0
-280 -172 0
280 129 -143 32 13 172 0
276 277 278 279 280 0
-281 -145 0
-281 49 0
-281 -30 0
-281 168 0
-281 97 0
281 145 -49 30 -168 -97 0
-282 -85 0
-282 143 0
-282 84 0
-282 12 0
-282 159 0
282 85 -143 -84 -12 -159 0
-283 -163 0
-283 -177 0
-283 -105 0
-283 -71 0
-283 -59 0
283 163 177 105 71 59 0
-284 -49 0
-284 153 0
-284 3 0
-284 -71 0
-284 31 0
284 49 -153 -3 71 -31 0
-285 -111 0
-285 33 0
-285 -102 0
-285 -41 0
-285 59 0
285 111 -33 102 41 -59 0
281 282 283 284 285 0
-286 135 0
-286 -85 0
-286 68 0
-286 -75 0
-286 -103 0
286 -135 85 -68 75 103 0
-287 -8 0
-287 20 0
-287 -115 0
-287 -98 0
-287 -181 0
287 8 -20 115 98 181 0
-288 -112 0
-288 -108 0
-288 69 0
-288 -10 0
-288 107 0
288 112 108 -69 10 -107 0
-289 144 0
-289 -70 0
-289 -174 0
-289 74 0
-289 -75 0
289 -144 70 174 -74 75 0
-290 1 0
-290 -98 0
-290 -157 0
-290 140 0
-290 -75 0
290 -1 98 157 -140 75 0
286 287 288 289 290 0
-291 156 0
-291 -75 0
-291 -36 0
-291 88 0
-291 -134 0
291 -156 75 36 -88 134 0
-292 67 0
-292 -111 0
-292 100 0
-292 122 0
-292 174 0
292 -67 111 -100 -122 -174 0
-293 -25 0
-293 144 0
-293 -2 0
-293 140 0
-293 57 0
293 25 -144 2 -140 -57 0
-294 -77 0
-294 163 0
-294 -108 0
-294 -175 0
-294 24 0
294 77 -163 108 175 -24 0
-295 -73 0
-295 88 0
-295 99 0
-295 48 0
-295 -130 0
295 73 -88 -99 -48 130 0
291 292 293 294 295 0
-296 171 0
-296 -147 0
-296 142 0
-296 -88 0
-296 -90 0
296 -171 147 -142 88 90 0
-297 -60 0
-297 -142 0
-297 -107 0
-297 2 0
-297 37 0
297 60 142 107 -2 -37 0
-298 -21 0
-298 76 0
-298 151 0
-298 149 0
-298 96 0
298 21 -76 -151 -149 -96 0
-299 92 0
-299 -77 0
-299 29 0
-299 120 0
-299 -81 0
299 -92 77 -29 -120 81 0
-300 13 0
-300 -45 0
-300 161 0
-300 -76 0
-300 47 0
300 -13 45 -161 76 -47 0
296 297 298 299 300 0
-301 150 0
-301 -90 0
-301 -38 0
-301 -105 0
-301 137 0
301 -150 90 38 105 -137 0
-302 -171 0
-302 69 0
-302 80 0
-302 111 0
-302 22 0
302 171 -69 -80 -111 -22 0
-303 -143 0
-303 73 0
-303 10 0
-303 90 0
-303 128 0
303 143 -73 -10 -90 -128 0
-304 -21 0
-304 -8 0
-304 144 0
-304 -100 0
-304 -48 0
304 21 8 -144 100 48 0
-305 118 0
-305 52 0
-305 149 0
-305 -145 0
-305 -29 0
305 -118 -52 -149 145 29 0
301 302 303 304 305 0
-306 117 0
-306 71 0
-306 183 0
-306 68 0
-306 66 0
306 -117 -71 -183 -68 -66 0
-307 170 0
-307 -171 0
-307 -143 0
-307 173 0
-307 148 0
307 -170 171 143 -173 -148 0
-308 74 0
-308 49 0
-308 131 0
-308 -184 0
-308 38 0
308 -74 -49 -131 184 -38 0
-309 177 0
-309 110 0
-309 -188 0
-309 -130 0
-309 127 0
309 -177 -110 188 130 -127 0
-310 129 0
-310 49 0
-310 -46 0
-310 167 0
-310 -26 0
310 -129 -49 46 -167 26 0
306 307 308 309 310 0
-311 186 0
-311 51 0
-311 -104 0
-311 101 0
-311 129 0
311 -186 -51 104 -101 -129 0
-312 17 0
-312 -79 0
-312 -139 0
-312 67 0
-312 117 0
312 -17 79 139 -67 -117 0
-313 112 0
-313 -116 0
-313 -184 0
-313 -134 0
-313 91 0
313 -112 116 184 134 -91 0
-314 15 0
-314 139 0
-314 33 0
-314 -12 0
-314 -16 0
314 -15 -139 -33 12 16 0
-315 80 0
-315 55 0
-315 -102 0
-315 47 0
-315 -161 0
315 -80 -55 102 -47 161 0
311 312 313 314 315 0
-316 -177 0
-316 -149 0
-316 -108 0
-316 -9 0
-316 33 0
316 177 149 108 9 -33 0
-317 -85 0
-317 -93 0
-317 -173 0
-317 132 0
-317 -101 0
317 85 93 173 -132 101 0
-318 -58 0
-318 -157 0
-318 -29 0
-318 78 0
-318 2 0
318 58 157 29 -78 -2 0
-319 39 0
-319 -92 0
-319 49 0
-319 -115 0
-319 -67 0
319 -39 92 -49 115 67 0
-320 24 0
-320 80 0
-320 97 0
-320 -167 0
-320 30 0
320 -24 -80 -97 167 -30 0
316 317 318 319 320 0
-321 33 0
-321 185 0
-321 78 0
-321 -43 0
-321 100 0
321 -33 -185 -78 43 -100 0
-322 68 0
-322 104 0
-322 142 0
-322 94 0
-322 118 0
322 -68 -104 -142 -94 -118 0
-323 -164 0
-323 -184 0
-323 -6 0
-323 -21 0
-323 147 0
323 164 184 6 21 -147 0
-324 -182 0
-324 32 0
-324 -7 0
-324 99 0
-324 185 0
324 182 -32 7 -99 -185 0
-325 -54 0
-325 134 0
-325 119 0
-325 -43 0
-325 -160 0
325 54 -134 -119 43 160 0
321 322 323 324 325 0
-326 -1 0
-326 -97 0
-326 164 0
-326 64 0
-326 -121 0
326 1 97 -164 -64 121 0
-327 -94 0
-327 -68 0
-327 -176 0
-327 82 0
-327 -137 0
327 94 68 176 -82 137 0
-328 152 0
-328 -187 0
-328 63 0
-328 39 0
-328 -179 0
328 -152 187 -63 -39 179 0
-329 -53 0
-329 142 0
-329 30 0
-329 -13 0
-329 112 0
329 53 -142 -30 13 -112 0
-330 -96 0
-330 -36 0
-330 -156 0
-330 -55 0
-330 1 0
330 96 36 156 55 -1 0
326 327 328 329 330 0
-331 -44 0
-331 19 0
-331 -115 0
-331 88 0
-331 -59 0
331 44 -19 115 -88 59 0
-332 -97 0
-332 -99 0
-332 -88 0
-332 -156 0
-332 -172 0
332 97 99 88 156 172 0
-333 -132 0
-333 69 0
-333 -174 0
-333 -127 0
-333 -53 0
333 132 -69 174 127 53 0
-334 75 0
-334 76 0
-334 -8 0
-334 -5 0
-334 99 0
334 -75 -76 8 5 -99 0
-335 8 0
-335 173 0
-335 60 0
-335 54 0
-335 -110 0
335 -8 -173 -60 -54 110 0
331 332 333 334 335 0
-336 -19 0
-336 181 0
-336 114 0
-336 65 0
-336 -56 0
336 19 -181 -114 -65 56 0
-337 140 0
-337 -29 0
-337 156 0
-337 -71 0
-337 114 0
337 -140 29 -156 71 -114 0
-338 -46 0
-338 -50 0
-338 19 0
-338 142 0
-338 -57 0
338 46 50 -19 -142 57 0
-339 -87 0
-339 -138 0
-339 -97 0
-339 58 0
-339 -110 0
339 87 138 97 -58 110 0
-340 -69 0
-340 -68 0
-340 -123 0
-340 -55 0
-340 -21 0
340 69 68 123 55 21 0
336 337 338 339 340 0
-341 -126 0
-341 166 0
-341 -82 0
-341 8 0
-341 -29 0
341 126 -166 82 -8 29 0
-342 -153 0
-342 146 0
-342 133 0
-342 -131 0
-342 63 0
342 153 -146 -133 131 -63 0
-343 20 0
-343 -150 0
-343 -49 0
-343 -57 0
-343 86 0
343 -20 150 49 57 -86 0
-344 6 0
-344 145 0
-344 -52 0
-344 -124 0
-344 -85 0
344 -6 -145 52 124 85 0
-345 9 0
-345 12 0
-345 -146 0
-345 124 0
-345 175 0
345 -9 -12 146 -124 -175 0
341 342 343 344 345 0
-346 -101 0
-346 157 0
-346 57 0
-346 -182 0
-346 13 0
346 101 -157 -57 182 -13 0
-347 79 0
-347 115 0
-347 -148 0
-347 -24 0
-347 -58 0
347 -79 -115 148 24 58 0
-348 81 0
-348 -184 0
-348 61 0
-348 20 0
-348 37 0
348 -81 184 -61 -20 -37 0
-349 -38 0
-349 11 0
-349 50 0
-349 -125 0
-349 28 0
349 38 -11 -50 125 -28 0
-350 80 0
-350 -168 0
-350 -30 0
-350 79 0
-350 -8 0
350 -80 168 30 -79 8 0
346 347 348 349 350 0
-351 99 0
-351 -137 0
-351 130 0
-351 -45 0
-351 -176 0
351 -99 137 -130 45 176 0
-352 134 0
-352 -109 0
-352 -80 0
-352 141 0
-352 -63 0
352 -134 109 80 -141 63 0
-353 189 0
-353 -96 0
-353 54 0
-353 130 0
-353 40 0
353 -189 96 -54 -130 -40 0
-354 16 0
-354 63 0
-354 68 0
-354 -80 0
-354 -73 0
354 -16 -63 -68 80 73 0
-355 -46 0
-355 -77 0
-355 -75 0
-355 82 0
-355 107 0
355 46 77 75 -82 -107 0
351 352 353 354 355 0
-356 31 0
-356 178 0
-356 104 0
-356 81 0
-356 32 0
356 -31 -178 -104 -81 -32 0
-357 -135 0
-357 183 0
-357 -187 0
-357 -189 0
-357 -51 0
357 135 -183 187 189 51 0
-358 -4 0
-358 98 0
-358 -120 0
-358 173 0
-358 -107 0
358 4 -98 120 -173 107 0
-359 -19 0
-359 53 0
-359 -94 0
-359 153 0
-359 -150 0
359 19 -53 94 -153 150 0
-360 -186 0
-360 135 0
-360 27 0
-360 -91 0
-360 6 0
360 186 -135 -27 91 -6 0
356 357 358 359 360 0
-361 -146 0
-361 113 0
-361 35 0
-361 65 0
-361 -99 0
361 146 -113 -35 -65 99 0
-362 63 0
-362 -175 0
-362 5 0
-362 163 0
-362 167 0
362 -63 175 -5 -163 -167 0
-363 -23 0
-363 -64 0
-363 -12 0
-363 47 0
-363 -153 0
363 23 64 12 -47 153 0
-364 -182 0
-364 139 0
-364 44 0
-364 -183 0
-364 -17 0
364 182 -139 -44 183 17 0
-365 48 0
-365 -142 0
-365 -27 0
-365 -28 0
-365 59 0
365 -48 142 27 28 -59 0
361 362 363 364 365 0
-366 -31 0
-366 145 0
-366 102 0
-366 -147 0
-366 104 0
366 31 -145 -102 147 -104 0
-367 -42 0
-367 -126 0
-367 -27 0
-367 -175 0
-367 166 0
367 42 126 27 175 -166 0
-368 172 0
-368 20 0
-368 -33 0
-368 59 0
-368 51 0
368 -172 -20 33 -59 -51 0
-369 52 0
-369 2 0
-369 -59 0
-369 -151 0
-369 -103 0
369 -52 -2 59 151 103 0
-370 113 0
-370 -190 0
-370 -187 0
-370 30 0
-370 -34 0
370 -113 190 187 -30 34 0
366 367 368 369 370 0
-371 24 0
-371 187 0
-371 -100 0
-371 118 0
-371 -60 0
371 -24 -187 100 -118 60 0
-372 -115 0
-372 -98 0
-372 174 0
-372 149 0
-372 -78 0
372 115 98 -174 -149 78 0
-373 -20 0
-373 66 0
-373 170 0
-373 43 0
-373 44 0
373 20 -66 -170 -43 -44 0
-374 119 0
-374 -189 0
-374 149 0
-374 -13 0
-374 83 0
374 -119 189 -149 13 -83 0
-375 21 0
-375 -116 0
-375 -183 0
-375 168 0
-375 -121 0
375 -21 116 183 -168 121 0
371 372 373 374 375 0
-376 -185 0
-376 -114 0
-376 -188 0
-376 -71 0
-376 -97 0
376 185 114 188 71 97 0
-377 -60 0
-377 -68 0
-377 23 0
-377 139 0
-377 49 0
377 60 68 -23 -139 -49 0
-378 -165 0
-378 -31 0
-378 -144 0
-378 -162 0
-378 62 0
378 165 31 144 162 -62 0
-379 32 0
-379 63 0
-379 -38 0
-379 -66 0
-379 -69 0
379 -32 -63 38 66 69 0
-380 -174 0
-380 47 0
-380 157 0
-380 -82 0
-380 15 0
380 174 -47 -157 82 -15 0
376 377 378 379 380 0
-381 -183 0
-381 -112 0
-381 20 0
-381 95 0
-381 -127 0
381 183 112 -20 -95 127 0
-382 26 0
-382 186 0
-382 -53 0
-382 -80 0
-382 -16 0
382 -26 -186 53 80 16 0
-383 -175 0
-383 173 0
-383 105 0
-383 -20 0
-383 65 0
383 175 -173 -105 20 -65 0
-384 98 0
-384 -80 0
-384 21 0
-384 -107 0
-384 152 0
384 -98 80 -21 107 -152 0
-385 -124 0
-385 75 0
-385 -160 0
-385 162 0
-385 154 0
385 124 -75 160 -162 -154 0
381 382 383 384 385 0
-386 -177 0
-386 -161 0
-386 -58 0
-386 33 0
-386 -14 0
386 177 161 58 -33 14 0
-387 -125 0
-387 106 0
-387 -65 0
-387 89 0
-387 -135 0
387 125 -106 65 -89 135 0
-388 98 0
-388 71 0
-388 162 0
-388 -60 0
-388 144 0
388 -98 -71 -162 60 -144 0
-389 -126 0
-389 14 0
-389 -145 0
-389 27 0
-389 -171 0
389 126 -14 145 -27 171 0
-390 120 0
-390 -28 0
-390 164 0
-390 -10 0
-390 123 0
390 -120 28 -164 10 -123 0
386 387 388 389 390 0
-391 -56 0
-391 -177 0
-391 136 0
-391 180 0
-391 86 0
391 56 177 -136 -180 -86 0
-392 -184 0
-392 -45 0
-392 -100 0
-392 -57 0
-392 66 0
392 184 45 100 57 -66 0
-393 46 0
-393 -181 0
-393 2 0
-393 74 0
-393 -127 0
393 -46 181 -2 -74 127 0
-394 -139 0
-394 -142 0
-394 -132 0
-394 -40 0
-394 -23 0
394 139 142 132 40 23 0
-395 -65 0
-395 -84 0
-395 46 0
-395 -140 0
-395 53 0
395 65 84 -46 140 -53 0
391 392 393 394 395 0
-396 22 0
-396 162 0
-396 -80 0
-396 46 0
-396 171 0
396 -22 -162 80 -46 -171 0
-397 189 0
-397 -182 0
-397 107 0
-397 -178 0
-397 31 0
397 -189 182 -107 178 -31 0
-398 142 0
-398 -143 0
-398 -33 0
-398 -118 0
-398 -101 0
398 -142 143 33 118 101 0
-399 189 0
-399 -161 0
-399 -179 0
-399 158 0
-399 -49 0
399 -189 161 179 -158 49 0
-400 129 0
-400 -183 0
-400 -158 0
-400 -66 0
-400 37 0
400 -129 183 158 66 -37 0
396 397 398 399 400 0
-401 -116 0
-401 110 0
-401 -122 0
-401 61 0
-401 -133 0
401 116 -110 122 -61 133 0
-402 48 0
-402 143 0
-402 -170 0
-402 -24 0
-402 -58 0
402 -48 -143 170 24 58 0
-403 -81 0
-403 142 0
-403 -105 0
-403 -188 0
-403 164 0
403 81 -142 105 188 -164 0
-404 98 0
-404 122 0
-404 92 0
-404 -131 0
-404 -120 0
404 -98 -122 -92 131 120 0
-405 -107 0
-405 138 0
-405 -1 0
-405 -31 0
-405 168 0
405 107 -138 1 31 -168 0
401 402 403 404 405 0
-406 169 0
-406 -60 0
-406 138 0
-406 -178 0
-406 -2 0
406 -169 60 -138 178 2 0
-407 -113 0
-407 183 0
-407 139 0
-407 96 0
-407 -33 0
407 113 -183 -139 -96 33 0
-408 -78 0
-408 141 0
-408 -18 0
-408 -25 0
-408 -27 0
408 78 -141 18 25 27 0
-409 158 0
-409 98 0
-409 171 0
-409 117 0
-409 152 0
409 -158 -98 -171 -117 -152 0
-410 53 0
-410 -144 0
-410 -32 0
-410 -40 0
-410 -67 0
410 -53 144 32 40 67 0
406 407 408 409 410 0
-411 186 0
-411 -173 0
-411 -54 0
-411 -154 0
-411 67 0
411 -186 173 54 154 -67 0
-412 50 0
-412 128 0
-412 -80 0
-412 110 0
-412 65 0
412 -50 -128 80 -110 -65 0
-413 -83 0
-413 96 0
-413 -185 0
-413 -69 0
-413 -145 0
413 83 -96 185 69 145 0
-414 -131 0
-414 174 0
-414 25 0
-414 -190 0
-414 186 0
414 131 -174 -25 190 -186 0
-415 -157 0
-415 -44 0
-415 -92 0
-415 23 0
-415 169 0
415 157 44 92 -23 -169 0
411 412 413 414 415 0
-416 -42 0
-416 51 0
-416 78 0
-416 -66 0
-416 92 0
416 42 -51 -78 66 -92 0
-417 -137 0
-417 -125 0
-417 116 0
-417 118 0
-417 -121 0
417 137 125 -116 -118 121 0
-418 1 0
-418 162 0
-418 17 0
-418 -109 0
-418 156 0
418 -1 -162 -17 109 -156 0
-419 155 0
-419 -110 0
-419 168 0
-419 -128 0
-419 -20 0
419 -155 110 -168 128 20 0
-420 -27 0
-420 149 0
-420 108 0
-420 136 0
-420 -118 0
420 27 -149 -108 -136 118 0
416 417 418 419 420 0
-421 145 0
-421 1 0
-421 50 0
-421 156 0
-421 -62 0
421 -145 -1 -50 -156 62 0
-422 143 0
-422 -27 0
-422 153 0
-422 84 0
-422 -155 0
422 -143 27 -153 -84 155 0
-423 145 0
-423 149 0
-423 -101 0
-423 9 0
-423 47 0
423 -145 -149 101 -9 -47 0
-424 53 0
-424 98 0
-424 -90 0
-424 81 0
-424 -148 0
424 -53 -98 90 -81 148 0
-425 -8 0
-425 119 0
-425 -73 0
-425 137 0
-425 -187 0
425 8 -119 73 -137 187 0
421 422 423 424 425 0
-426 -10 0
-426 158 0
-426 45 0
-426 61 0
-426 65 0
426 10 -158 -45 -61 -65 0
-427 43 0
-427 -51 0
-427 -110 0
-427 -60 0
-427 172 0
427 -43 51 110 60 -172 0
-428 -166 0
-428 -125 0
-428 -66 0
-428 -71 0
-428 -42 0
428 166 125 66 71 42 0
-429 137 0
-429 -90 0
-429 93 0
-429 46 0
-429 -114 0
429 -137 90 -93 -46 114 0
-430 -155 0
-430 174 0
-430 -49 0
-430 -16 0
-430 20 0
430 155 -174 49 16 -20 0
426 427 428 429 430 0
